# Solution for model r10_t18_m5_7
# Finished Task: 17 / 18
# Makespan: 493.0, Total Distance: 175.0, Total Time: 3.4643
# R O S F
0 0 24 153.0 153.0
1 1 11 239.0 239.0
2 2 15 372.0 372.0
3 3 -1 0.0 0.0
4 4 12 17.0 17.0
5 5 20 338.0 338.0
6 6 -1 294.0 294.0
7 7 13 340.0 340.0
8 8 22 290.0 290.0
9 9 18 272.0 272.0
10 9 -1 321.0 349.0
11 1 -1 249.0 274.0
12 4 25 60.0 97.0
13 7 23 365.0 395.0
14 2 -1 429.0 456.0
15 2 14 384.0 413.0
16 7 -1 456.0 493.0
17 0 27 426.0 454.0
18 9 10 274.0 309.0
19 5 -1 454.0 487.0
20 5 19 345.0 384.0
21 -1 -1 470.0 493.0
22 8 -1 434.0 470.0
23 7 16 427.0 456.0
24 0 17 349.0 385.0
25 4 26 124.0 162.0
26 4 -1 344.0 365.0
27 0 -1 472.0 493.0
